85,90
50,3
193,68
133,13
35,94
185,47
83,8
15,48
29,93
86,7
129,33
31,22
148,84
46,56
116,1
40,50
154,22
35,68
63,22
119,45
173,96
95,95
120,28
84,43
26,4
39,36
178,7
174,75
43,35
81,63
104,8
44,43
155,53
176,100
84,3
18,48
30,6
102,50
8,69
104,29
160,98
9,45
104,39
117,8
125,96
27,22
165,38
190,25
23,68
134,3
